============================[ Problem Statistics ]=============================|                                                                             ||  Number of variables:          4242                                         ||  Number of clauses:            9821                                         ||  Parse time:                   0.22 s                                       ||                                                                             |============================[ Search Statistics ]==============================| Conflicts |          ORIGINAL         |          LEARNT          | Progress ||           |    Vars  Clauses Literals |    Limit  Clauses Lit/Cl |          |===============================================================================|       100 |    1591     6026   334767 |     2209      100     53 | 62.501 % |===============================================================================restarts              : 2conflicts             : 131            (358 /sec)decisions             : 301            (0.00 % random) (822 /sec)propagations          : 9915           (27090 /sec)conflict literals     : 8017           (95.58 % deleted)CPU time              : 0.366 sSATISFIABLE